c turning on binary mode checking
c parsing input formula with 259840 variables and 1039924 clauses
c finished parsing, read 2961977 bytes from proof file
c detected empty clause; start verification via backward checking
c 4187 of 1039924 clauses in core                            
c 1357 of 122898 lemmas in core using 40521 resolution steps
c 0 RAT lemmas in core; 102 redundant literals in core lemmas
s VERIFIED
c verification time: 1.295 seconds
